n = 310;
rows = 906;
supports = [|
  {1},{1},
 |{1},13..299,
 |{2},{2},
 |{2},14..300,
 |{3},{3},
 |{3},15..301,
 |{4},{4},
 |{4},16..302,
 |{5},{5},
 |{5},17..303,
 |{6},{6},
 |{6},18..304,
 |{7},{7},
 |{7},19..305,
 |{8},{8},
 |{8},20..306,
 |{9},{9},
 |{9},21..307,
 |{10},{10},
 |{10},22..308,
 |{11},{11},
 |{11},23..309,
 |{12},{12},
 |{12},24..310,
 |{13},{13},
 |{13},{1},
 |{13},25..310,
 |{14},{14},
 |{14},1..2,
 |{14},26..310,
 |{15},{15},
 |{15},1..3,
 |{15},27..310,
 |{16},{16},
 |{16},1..4,
 |{16},28..310,
 |{17},{17},
 |{17},1..5,
 |{17},29..310,
 |{18},{18},
 |{18},1..6,
 |{18},30..310,
 |{19},{19},
 |{19},1..7,
 |{19},31..310,
 |{20},{20},
 |{20},1..8,
 |{20},32..310,
 |{21},{21},
 |{21},1..9,
 |{21},33..310,
 |{22},{22},
 |{22},1..10,
 |{22},34..310,
 |{23},{23},
 |{23},1..11,
 |{23},35..310,
 |{24},{24},
 |{24},1..12,
 |{24},36..310,
 |{25},{25},
 |{25},1..13,
 |{25},37..310,
 |{26},{26},
 |{26},1..14,
 |{26},38..310,
 |{27},{27},
 |{27},1..15,
 |{27},39..310,
 |{28},{28},
 |{28},1..16,
 |{28},40..310,
 |{29},{29},
 |{29},1..17,
 |{29},41..310,
 |{30},{30},
 |{30},1..18,
 |{30},42..310,
 |{31},{31},
 |{31},1..19,
 |{31},43..310,
 |{32},{32},
 |{32},1..20,
 |{32},44..310,
 |{33},{33},
 |{33},1..21,
 |{33},45..310,
 |{34},{34},
 |{34},1..22,
 |{34},46..310,
 |{35},{35},
 |{35},1..23,
 |{35},47..310,
 |{36},{36},
 |{36},1..24,
 |{36},48..310,
 |{37},{37},
 |{37},1..25,
 |{37},49..310,
 |{38},{38},
 |{38},1..26,
 |{38},50..310,
 |{39},{39},
 |{39},1..27,
 |{39},51..310,
 |{40},{40},
 |{40},1..28,
 |{40},52..310,
 |{41},{41},
 |{41},1..29,
 |{41},53..310,
 |{42},{42},
 |{42},1..30,
 |{42},54..310,
 |{43},{43},
 |{43},1..31,
 |{43},55..310,
 |{44},{44},
 |{44},1..32,
 |{44},56..310,
 |{45},{45},
 |{45},1..33,
 |{45},57..310,
 |{46},{46},
 |{46},1..34,
 |{46},58..310,
 |{47},{47},
 |{47},1..35,
 |{47},59..310,
 |{48},{48},
 |{48},1..36,
 |{48},60..310,
 |{49},{49},
 |{49},1..37,
 |{49},61..310,
 |{50},{50},
 |{50},1..38,
 |{50},62..310,
 |{51},{51},
 |{51},1..39,
 |{51},63..310,
 |{52},{52},
 |{52},1..40,
 |{52},64..310,
 |{53},{53},
 |{53},1..41,
 |{53},65..310,
 |{54},{54},
 |{54},1..42,
 |{54},66..310,
 |{55},{55},
 |{55},1..43,
 |{55},67..310,
 |{56},{56},
 |{56},1..44,
 |{56},68..310,
 |{57},{57},
 |{57},1..45,
 |{57},69..310,
 |{58},{58},
 |{58},1..46,
 |{58},70..310,
 |{59},{59},
 |{59},1..47,
 |{59},71..310,
 |{60},{60},
 |{60},1..48,
 |{60},72..310,
 |{61},{61},
 |{61},1..49,
 |{61},73..310,
 |{62},{62},
 |{62},1..50,
 |{62},74..310,
 |{63},{63},
 |{63},1..51,
 |{63},75..310,
 |{64},{64},
 |{64},1..52,
 |{64},76..310,
 |{65},{65},
 |{65},1..53,
 |{65},77..310,
 |{66},{66},
 |{66},1..54,
 |{66},78..310,
 |{67},{67},
 |{67},1..55,
 |{67},79..310,
 |{68},{68},
 |{68},1..56,
 |{68},80..310,
 |{69},{69},
 |{69},1..57,
 |{69},81..310,
 |{70},{70},
 |{70},1..58,
 |{70},82..310,
 |{71},{71},
 |{71},1..59,
 |{71},83..310,
 |{72},{72},
 |{72},1..60,
 |{72},84..310,
 |{73},{73},
 |{73},1..61,
 |{73},85..310,
 |{74},{74},
 |{74},1..62,
 |{74},86..310,
 |{75},{75},
 |{75},1..63,
 |{75},87..310,
 |{76},{76},
 |{76},1..64,
 |{76},88..310,
 |{77},{77},
 |{77},1..65,
 |{77},89..310,
 |{78},{78},
 |{78},1..66,
 |{78},90..310,
 |{79},{79},
 |{79},1..67,
 |{79},91..310,
 |{80},{80},
 |{80},1..68,
 |{80},92..310,
 |{81},{81},
 |{81},1..69,
 |{81},93..310,
 |{82},{82},
 |{82},1..70,
 |{82},94..310,
 |{83},{83},
 |{83},1..71,
 |{83},95..310,
 |{84},{84},
 |{84},1..72,
 |{84},96..310,
 |{85},{85},
 |{85},1..73,
 |{85},97..310,
 |{86},{86},
 |{86},1..74,
 |{86},98..310,
 |{87},{87},
 |{87},1..75,
 |{87},99..310,
 |{88},{88},
 |{88},1..76,
 |{88},100..310,
 |{89},{89},
 |{89},1..77,
 |{89},101..310,
 |{90},{90},
 |{90},1..78,
 |{90},102..310,
 |{91},{91},
 |{91},1..79,
 |{91},103..310,
 |{92},{92},
 |{92},1..80,
 |{92},104..310,
 |{93},{93},
 |{93},1..81,
 |{93},105..310,
 |{94},{94},
 |{94},1..82,
 |{94},106..310,
 |{95},{95},
 |{95},1..83,
 |{95},107..310,
 |{96},{96},
 |{96},1..84,
 |{96},108..310,
 |{97},{97},
 |{97},1..85,
 |{97},109..310,
 |{98},{98},
 |{98},1..86,
 |{98},110..310,
 |{99},{99},
 |{99},1..87,
 |{99},111..310,
 |{100},{100},
 |{100},1..88,
 |{100},112..310,
 |{101},{101},
 |{101},1..89,
 |{101},113..310,
 |{102},{102},
 |{102},1..90,
 |{102},114..310,
 |{103},{103},
 |{103},1..91,
 |{103},115..310,
 |{104},{104},
 |{104},1..92,
 |{104},116..310,
 |{105},{105},
 |{105},1..93,
 |{105},117..310,
 |{106},{106},
 |{106},1..94,
 |{106},118..310,
 |{107},{107},
 |{107},1..95,
 |{107},119..310,
 |{108},{108},
 |{108},1..96,
 |{108},120..310,
 |{109},{109},
 |{109},1..97,
 |{109},121..310,
 |{110},{110},
 |{110},1..98,
 |{110},122..310,
 |{111},{111},
 |{111},1..99,
 |{111},123..310,
 |{112},{112},
 |{112},1..100,
 |{112},124..310,
 |{113},{113},
 |{113},1..101,
 |{113},125..310,
 |{114},{114},
 |{114},1..102,
 |{114},126..310,
 |{115},{115},
 |{115},1..103,
 |{115},127..310,
 |{116},{116},
 |{116},1..104,
 |{116},128..310,
 |{117},{117},
 |{117},1..105,
 |{117},129..310,
 |{118},{118},
 |{118},1..106,
 |{118},130..310,
 |{119},{119},
 |{119},1..107,
 |{119},131..310,
 |{120},{120},
 |{120},1..108,
 |{120},132..310,
 |{121},{121},
 |{121},1..109,
 |{121},133..310,
 |{122},{122},
 |{122},1..110,
 |{122},134..310,
 |{123},{123},
 |{123},1..111,
 |{123},135..310,
 |{124},{124},
 |{124},1..112,
 |{124},136..310,
 |{125},{125},
 |{125},1..113,
 |{125},137..310,
 |{126},{126},
 |{126},1..114,
 |{126},138..310,
 |{127},{127},
 |{127},1..115,
 |{127},139..310,
 |{128},{128},
 |{128},1..116,
 |{128},140..310,
 |{129},{129},
 |{129},1..117,
 |{129},141..310,
 |{130},{130},
 |{130},1..118,
 |{130},142..310,
 |{131},{131},
 |{131},1..119,
 |{131},143..310,
 |{132},{132},
 |{132},1..120,
 |{132},144..310,
 |{133},{133},
 |{133},1..121,
 |{133},145..310,
 |{134},{134},
 |{134},1..122,
 |{134},146..310,
 |{135},{135},
 |{135},1..123,
 |{135},147..310,
 |{136},{136},
 |{136},1..124,
 |{136},148..310,
 |{137},{137},
 |{137},1..125,
 |{137},149..310,
 |{138},{138},
 |{138},1..126,
 |{138},150..310,
 |{139},{139},
 |{139},1..127,
 |{139},151..310,
 |{140},{140},
 |{140},1..128,
 |{140},152..310,
 |{141},{141},
 |{141},1..129,
 |{141},153..310,
 |{142},{142},
 |{142},1..130,
 |{142},154..310,
 |{143},{143},
 |{143},1..131,
 |{143},155..310,
 |{144},{144},
 |{144},1..132,
 |{144},156..310,
 |{145},{145},
 |{145},1..133,
 |{145},157..310,
 |{146},{146},
 |{146},1..134,
 |{146},158..310,
 |{147},{147},
 |{147},1..135,
 |{147},159..310,
 |{148},{148},
 |{148},1..136,
 |{148},160..310,
 |{149},{149},
 |{149},1..137,
 |{149},161..310,
 |{150},{150},
 |{150},1..138,
 |{150},162..310,
 |{151},{151},
 |{151},1..139,
 |{151},163..310,
 |{152},{152},
 |{152},1..140,
 |{152},164..310,
 |{153},{153},
 |{153},1..141,
 |{153},165..310,
 |{154},{154},
 |{154},1..142,
 |{154},166..310,
 |{155},{155},
 |{155},1..143,
 |{155},167..310,
 |{156},{156},
 |{156},1..144,
 |{156},168..310,
 |{157},{157},
 |{157},1..145,
 |{157},169..310,
 |{158},{158},
 |{158},1..146,
 |{158},170..310,
 |{159},{159},
 |{159},1..147,
 |{159},171..310,
 |{160},{160},
 |{160},1..148,
 |{160},172..310,
 |{161},{161},
 |{161},1..149,
 |{161},173..310,
 |{162},{162},
 |{162},1..150,
 |{162},174..310,
 |{163},{163},
 |{163},1..151,
 |{163},175..310,
 |{164},{164},
 |{164},1..152,
 |{164},176..310,
 |{165},{165},
 |{165},1..153,
 |{165},177..310,
 |{166},{166},
 |{166},1..154,
 |{166},178..310,
 |{167},{167},
 |{167},1..155,
 |{167},179..310,
 |{168},{168},
 |{168},1..156,
 |{168},180..310,
 |{169},{169},
 |{169},1..157,
 |{169},181..310,
 |{170},{170},
 |{170},1..158,
 |{170},182..310,
 |{171},{171},
 |{171},1..159,
 |{171},183..310,
 |{172},{172},
 |{172},1..160,
 |{172},184..310,
 |{173},{173},
 |{173},1..161,
 |{173},185..310,
 |{174},{174},
 |{174},1..162,
 |{174},186..310,
 |{175},{175},
 |{175},1..163,
 |{175},187..310,
 |{176},{176},
 |{176},1..164,
 |{176},188..310,
 |{177},{177},
 |{177},1..165,
 |{177},189..310,
 |{178},{178},
 |{178},1..166,
 |{178},190..310,
 |{179},{179},
 |{179},1..167,
 |{179},191..310,
 |{180},{180},
 |{180},1..168,
 |{180},192..310,
 |{181},{181},
 |{181},1..169,
 |{181},193..310,
 |{182},{182},
 |{182},1..170,
 |{182},194..310,
 |{183},{183},
 |{183},1..171,
 |{183},195..310,
 |{184},{184},
 |{184},1..172,
 |{184},196..310,
 |{185},{185},
 |{185},1..173,
 |{185},197..310,
 |{186},{186},
 |{186},1..174,
 |{186},198..310,
 |{187},{187},
 |{187},1..175,
 |{187},199..310,
 |{188},{188},
 |{188},1..176,
 |{188},200..310,
 |{189},{189},
 |{189},1..177,
 |{189},201..310,
 |{190},{190},
 |{190},1..178,
 |{190},202..310,
 |{191},{191},
 |{191},1..179,
 |{191},203..310,
 |{192},{192},
 |{192},1..180,
 |{192},204..310,
 |{193},{193},
 |{193},1..181,
 |{193},205..310,
 |{194},{194},
 |{194},1..182,
 |{194},206..310,
 |{195},{195},
 |{195},1..183,
 |{195},207..310,
 |{196},{196},
 |{196},1..184,
 |{196},208..310,
 |{197},{197},
 |{197},1..185,
 |{197},209..310,
 |{198},{198},
 |{198},1..186,
 |{198},210..310,
 |{199},{199},
 |{199},1..187,
 |{199},211..310,
 |{200},{200},
 |{200},1..188,
 |{200},212..310,
 |{201},{201},
 |{201},1..189,
 |{201},213..310,
 |{202},{202},
 |{202},1..190,
 |{202},214..310,
 |{203},{203},
 |{203},1..191,
 |{203},215..310,
 |{204},{204},
 |{204},1..192,
 |{204},216..310,
 |{205},{205},
 |{205},1..193,
 |{205},217..310,
 |{206},{206},
 |{206},1..194,
 |{206},218..310,
 |{207},{207},
 |{207},1..195,
 |{207},219..310,
 |{208},{208},
 |{208},1..196,
 |{208},220..310,
 |{209},{209},
 |{209},1..197,
 |{209},221..310,
 |{210},{210},
 |{210},1..198,
 |{210},222..310,
 |{211},{211},
 |{211},1..199,
 |{211},223..310,
 |{212},{212},
 |{212},1..200,
 |{212},224..310,
 |{213},{213},
 |{213},1..201,
 |{213},225..310,
 |{214},{214},
 |{214},1..202,
 |{214},226..310,
 |{215},{215},
 |{215},1..203,
 |{215},227..310,
 |{216},{216},
 |{216},1..204,
 |{216},228..310,
 |{217},{217},
 |{217},1..205,
 |{217},229..310,
 |{218},{218},
 |{218},1..206,
 |{218},230..310,
 |{219},{219},
 |{219},1..207,
 |{219},231..310,
 |{220},{220},
 |{220},1..208,
 |{220},232..310,
 |{221},{221},
 |{221},1..209,
 |{221},233..310,
 |{222},{222},
 |{222},1..210,
 |{222},234..310,
 |{223},{223},
 |{223},1..211,
 |{223},235..310,
 |{224},{224},
 |{224},1..212,
 |{224},236..310,
 |{225},{225},
 |{225},1..213,
 |{225},237..310,
 |{226},{226},
 |{226},1..214,
 |{226},238..310,
 |{227},{227},
 |{227},1..215,
 |{227},239..310,
 |{228},{228},
 |{228},1..216,
 |{228},240..310,
 |{229},{229},
 |{229},1..217,
 |{229},241..310,
 |{230},{230},
 |{230},1..218,
 |{230},242..310,
 |{231},{231},
 |{231},1..219,
 |{231},243..310,
 |{232},{232},
 |{232},1..220,
 |{232},244..310,
 |{233},{233},
 |{233},1..221,
 |{233},245..310,
 |{234},{234},
 |{234},1..222,
 |{234},246..310,
 |{235},{235},
 |{235},1..223,
 |{235},247..310,
 |{236},{236},
 |{236},1..224,
 |{236},248..310,
 |{237},{237},
 |{237},1..225,
 |{237},249..310,
 |{238},{238},
 |{238},1..226,
 |{238},250..310,
 |{239},{239},
 |{239},1..227,
 |{239},251..310,
 |{240},{240},
 |{240},1..228,
 |{240},252..310,
 |{241},{241},
 |{241},1..229,
 |{241},253..310,
 |{242},{242},
 |{242},1..230,
 |{242},254..310,
 |{243},{243},
 |{243},1..231,
 |{243},255..310,
 |{244},{244},
 |{244},1..232,
 |{244},256..310,
 |{245},{245},
 |{245},1..233,
 |{245},257..310,
 |{246},{246},
 |{246},1..234,
 |{246},258..310,
 |{247},{247},
 |{247},1..235,
 |{247},259..310,
 |{248},{248},
 |{248},1..236,
 |{248},260..310,
 |{249},{249},
 |{249},1..237,
 |{249},261..310,
 |{250},{250},
 |{250},1..238,
 |{250},262..310,
 |{251},{251},
 |{251},1..239,
 |{251},263..310,
 |{252},{252},
 |{252},1..240,
 |{252},264..310,
 |{253},{253},
 |{253},1..241,
 |{253},265..310,
 |{254},{254},
 |{254},1..242,
 |{254},266..310,
 |{255},{255},
 |{255},1..243,
 |{255},267..310,
 |{256},{256},
 |{256},1..244,
 |{256},268..310,
 |{257},{257},
 |{257},1..245,
 |{257},269..310,
 |{258},{258},
 |{258},1..246,
 |{258},270..310,
 |{259},{259},
 |{259},1..247,
 |{259},271..310,
 |{260},{260},
 |{260},1..248,
 |{260},272..310,
 |{261},{261},
 |{261},1..249,
 |{261},273..310,
 |{262},{262},
 |{262},1..250,
 |{262},274..310,
 |{263},{263},
 |{263},1..251,
 |{263},275..310,
 |{264},{264},
 |{264},1..252,
 |{264},276..310,
 |{265},{265},
 |{265},1..253,
 |{265},277..310,
 |{266},{266},
 |{266},1..254,
 |{266},278..310,
 |{267},{267},
 |{267},1..255,
 |{267},279..310,
 |{268},{268},
 |{268},1..256,
 |{268},280..310,
 |{269},{269},
 |{269},1..257,
 |{269},281..310,
 |{270},{270},
 |{270},1..258,
 |{270},282..310,
 |{271},{271},
 |{271},1..259,
 |{271},283..310,
 |{272},{272},
 |{272},1..260,
 |{272},284..310,
 |{273},{273},
 |{273},1..261,
 |{273},285..310,
 |{274},{274},
 |{274},1..262,
 |{274},286..310,
 |{275},{275},
 |{275},1..263,
 |{275},287..310,
 |{276},{276},
 |{276},1..264,
 |{276},288..310,
 |{277},{277},
 |{277},1..265,
 |{277},289..310,
 |{278},{278},
 |{278},1..266,
 |{278},290..310,
 |{279},{279},
 |{279},1..267,
 |{279},291..310,
 |{280},{280},
 |{280},1..268,
 |{280},292..310,
 |{281},{281},
 |{281},1..269,
 |{281},293..310,
 |{282},{282},
 |{282},1..270,
 |{282},294..310,
 |{283},{283},
 |{283},1..271,
 |{283},295..310,
 |{284},{284},
 |{284},1..272,
 |{284},296..310,
 |{285},{285},
 |{285},1..273,
 |{285},297..310,
 |{286},{286},
 |{286},1..274,
 |{286},298..310,
 |{287},{287},
 |{287},1..275,
 |{287},299..310,
 |{288},{288},
 |{288},1..276,
 |{288},300..310,
 |{289},{289},
 |{289},1..277,
 |{289},301..310,
 |{290},{290},
 |{290},1..278,
 |{290},302..310,
 |{291},{291},
 |{291},1..279,
 |{291},303..310,
 |{292},{292},
 |{292},1..280,
 |{292},304..310,
 |{293},{293},
 |{293},1..281,
 |{293},305..310,
 |{294},{294},
 |{294},1..282,
 |{294},306..310,
 |{295},{295},
 |{295},1..283,
 |{295},307..310,
 |{296},{296},
 |{296},1..284,
 |{296},308..310,
 |{297},{297},
 |{297},1..285,
 |{297},309..310,
 |{298},{298},
 |{298},1..286,
 |{298},{310},
 |{299},{299},
 |{299},1..287,
 |{300},{300},
 |{300},2..288,
 |{301},{301},
 |{301},3..289,
 |{302},{302},
 |{302},4..290,
 |{303},{303},
 |{303},5..291,
 |{304},{304},
 |{304},6..292,
 |{305},{305},
 |{305},7..293,
 |{306},{306},
 |{306},8..294,
 |{307},{307},
 |{307},9..295,
 |{308},{308},
 |{308},10..296,
 |{309},{309},
 |{309},11..297,
 |{310},{310},
 |{310},12..298 |];

t = 1069;

indexes = [|
    0,44,
  | 0,94,
  | 0,119,
  | 0,129,
  | 0,167,
  | 0,234,
  | 0,297,
  | 1,88,
  | 1,105,
  | 1,110,
  | 2,5,
  | 2,51,
  | 2,68,
  | 2,178,
  | 3,13,
  | 3,28,
  | 3,58,
  | 3,65,
  | 3,118,
  | 3,131,
  | 3,140,
  | 3,224,
  | 4,67,
  | 4,85,
  | 4,106,
  | 4,173,
  | 4,188,
  | 4,277,
  | 4,295,
  | 4,298,
  | 5,68,
  | 5,94,
  | 5,167,
  | 6,76,
  | 6,77,
  | 6,137,
  | 6,209,
  | 6,287,
  | 7,48,
  | 7,59,
  | 7,70,
  | 7,100,
  | 7,120,
  | 7,206,
  | 7,253,
  | 7,254,
  | 8,9,
  | 8,116,
  | 8,132,
  | 8,154,
  | 8,173,
  | 8,182,
  | 8,241,
  | 9,106,
  | 9,111,
  | 9,116,
  | 9,125,
  | 9,173,
  | 9,231,
  | 9,289,
  | 10,13,
  | 10,17,
  | 10,65,
  | 10,74,
  | 10,122,
  | 10,212,
  | 10,293,
  | 10,300,
  | 11,77,
  | 11,98,
  | 11,115,
  | 11,201,
  | 11,221,
  | 11,235,
  | 11,237,
  | 11,247,
  | 12,77,
  | 12,95,
  | 12,115,
  | 12,137,
  | 12,145,
  | 12,198,
  | 12,209,
  | 12,247,
  | 13,28,
  | 13,65,
  | 13,74,
  | 13,122,
  | 13,257,
  | 13,293,
  | 14,18,
  | 14,21,
  | 14,99,
  | 14,100,
  | 14,200,
  | 14,207,
  | 14,243,
  | 14,265,
  | 15,24,
  | 15,38,
  | 15,130,
  | 15,135,
  | 15,161,
  | 15,194,
  | 15,204,
  | 15,274,
  | 16,27,
  | 16,32,
  | 16,55,
  | 16,170,
  | 16,181,
  | 16,230,
  | 16,303,
  | 16,307,
  | 17,74,
  | 17,80,
  | 17,193,
  | 17,212,
  | 17,217,
  | 17,226,
  | 17,268,
  | 18,21,
  | 18,99,
  | 18,113,
  | 18,142,
  | 18,148,
  | 18,258,
  | 18,305,
  | 19,36,
  | 19,117,
  | 19,160,
  | 19,197,
  | 19,215,
  | 19,259,
  | 19,270,
  | 19,306,
  | 20,117,
  | 20,165,
  | 20,169,
  | 20,174,
  | 20,185,
  | 20,238,
  | 20,273,
  | 20,306,
  | 21,23,
  | 21,99,
  | 21,113,
  | 21,200,
  | 21,243,
  | 21,258,
  | 22,23,
  | 22,96,
  | 22,143,
  | 22,243,
  | 22,284,
  | 23,143,
  | 23,243,
  | 23,258,
  | 24,125,
  | 24,130,
  | 24,146,
  | 24,161,
  | 24,187,
  | 24,266,
  | 24,289,
  | 25,61,
  | 25,72,
  | 25,85,
  | 25,187,
  | 25,227,
  | 25,236,
  | 25,266,
  | 25,298,
  | 26,46,
  | 26,49,
  | 26,186,
  | 26,251,
  | 26,271,
  | 27,32,
  | 27,40,
  | 27,55,
  | 27,101,
  | 27,170,
  | 27,191,
  | 27,303,
  | 28,65,
  | 28,114,
  | 28,118,
  | 28,131,
  | 28,257,
  | 28,293,
  | 29,51,
  | 29,67,
  | 29,73,
  | 29,87,
  | 29,178,
  | 29,190,
  | 29,277,
  | 29,295,
  | 30,41,
  | 30,133,
  | 30,147,
  | 30,164,
  | 30,165,
  | 31,75,
  | 31,104,
  | 31,124,
  | 31,128,
  | 31,136,
  | 32,53,
  | 32,55,
  | 32,86,
  | 32,139,
  | 32,181,
  | 32,230,
  | 33,144,
  | 33,151,
  | 33,221,
  | 33,237,
  | 33,272,
  | 33,290,
  | 33,301,
  | 33,308,
  | 34,47,
  | 34,52,
  | 34,129,
  | 34,234,
  | 34,240,
  | 35,56,
  | 35,71,
  | 35,152,
  | 35,184,
  | 35,208,
  | 36,42,
  | 36,82,
  | 36,117,
  | 36,174,
  | 36,177,
  | 36,197,
  | 36,214,
  | 37,43,
  | 37,44,
  | 37,163,
  | 37,173,
  | 37,188,
  | 37,241,
  | 37,277,
  | 38,130,
  | 38,146,
  | 38,194,
  | 38,255,
  | 39,146,
  | 39,203,
  | 39,249,
  | 39,255,
  | 39,267,
  | 40,101,
  | 40,275,
  | 40,299,
  | 40,303,
  | 41,133,
  | 41,164,
  | 42,82,
  | 42,117,
  | 42,133,
  | 42,164,
  | 42,165,
  | 42,174,
  | 42,177,
  | 43,44,
  | 43,68,
  | 43,94,
  | 43,178,
  | 43,188,
  | 43,277,
  | 44,94,
  | 44,163,
  | 44,297,
  | 45,160,
  | 45,195,
  | 45,215,
  | 45,232,
  | 45,259,
  | 46,186,
  | 46,256,
  | 46,271,
  | 46,286,
  | 47,49,
  | 47,52,
  | 47,83,
  | 47,93,
  | 47,234,
  | 47,251,
  | 47,297,
  | 48,70,
  | 48,100,
  | 48,120,
  | 48,126,
  | 48,150,
  | 48,200,
  | 48,253,
  | 49,52,
  | 49,251,
  | 49,271,
  | 50,109,
  | 50,110,
  | 50,153,
  | 50,245,
  | 51,68,
  | 51,73,
  | 51,178,
  | 52,234,
  | 52,251,
  | 53,55,
  | 53,62,
  | 53,86,
  | 53,162,
  | 53,172,
  | 53,191,
  | 53,199,
  | 54,195,
  | 54,197,
  | 54,214,
  | 54,215,
  | 54,220,
  | 55,86,
  | 55,101,
  | 55,172,
  | 55,191,
  | 56,58,
  | 56,71,
  | 56,140,
  | 56,152,
  | 56,184,
  | 56,208,
  | 56,224,
  | 57,180,
  | 57,211,
  | 57,260,
  | 57,262,
  | 57,292,
  | 58,65,
  | 58,90,
  | 58,122,
  | 58,140,
  | 58,208,
  | 58,296,
  | 59,103,
  | 59,120,
  | 59,127,
  | 59,206,
  | 59,227,
  | 59,236,
  | 59,269,
  | 60,111,
  | 60,176,
  | 60,219,
  | 60,267,
  | 60,275,
  | 60,299,
  | 61,85,
  | 61,103,
  | 61,227,
  | 61,236,
  | 61,280,
  | 61,295,
  | 61,298,
  | 62,86,
  | 62,139,
  | 62,144,
  | 62,186,
  | 62,199,
  | 62,256,
  | 62,308,
  | 63,79,
  | 63,123,
  | 63,205,
  | 63,216,
  | 63,233,
  | 64,123,
  | 64,149,
  | 64,205,
  | 64,206,
  | 64,228,
  | 64,229,
  | 64,254,
  | 64,269,
  | 65,90,
  | 65,122,
  | 65,140,
  | 66,78,
  | 66,89,
  | 66,121,
  | 66,202,
  | 66,263,
  | 66,276,
  | 67,85,
  | 67,87,
  | 67,178,
  | 67,188,
  | 67,277,
  | 67,295,
  | 68,94,
  | 68,178,
  | 68,277,
  | 69,107,
  | 69,139,
  | 69,181,
  | 69,201,
  | 69,210,
  | 69,211,
  | 69,230,
  | 69,262,
  | 70,72,
  | 70,120,
  | 70,126,
  | 70,150,
  | 70,227,
  | 70,274,
  | 71,104,
  | 71,136,
  | 71,152,
  | 72,120,
  | 72,126,
  | 72,161,
  | 72,227,
  | 72,266,
  | 72,274,
  | 73,87,
  | 73,178,
  | 73,190,
  | 74,81,
  | 74,212,
  | 74,226,
  | 74,268,
  | 74,293,
  | 75,124,
  | 75,128,
  | 75,158,
  | 75,159,
  | 75,180,
  | 75,239,
  | 75,292,
  | 76,97,
  | 76,114,
  | 76,137,
  | 76,209,
  | 77,168,
  | 77,209,
  | 77,235,
  | 77,247,
  | 77,287,
  | 78,91,
  | 78,121,
  | 78,202,
  | 78,223,
  | 78,279,
  | 79,123,
  | 79,134,
  | 79,175,
  | 79,202,
  | 79,229,
  | 79,233,
  | 79,279,
  | 80,112,
  | 80,189,
  | 80,193,
  | 80,212,
  | 80,217,
  | 80,226,
  | 80,250,
  | 81,257,
  | 81,268,
  | 81,293,
  | 81,302,
  | 82,133,
  | 82,164,
  | 82,177,
  | 83,84,
  | 83,93,
  | 83,138,
  | 83,234,
  | 83,251,
  | 83,297,
  | 84,132,
  | 84,138,
  | 84,154,
  | 84,163,
  | 84,241,
  | 84,297,
  | 85,106,
  | 85,280,
  | 85,295,
  | 85,298,
  | 86,139,
  | 86,199,
  | 86,230,
  | 86,308,
  | 87,190,
  | 87,213,
  | 87,280,
  | 87,295,
  | 87,304,
  | 88,105,
  | 88,110,
  | 88,121,
  | 88,153,
  | 88,263,
  | 89,171,
  | 89,175,
  | 89,202,
  | 89,261,
  | 89,276,
  | 89,309,
  | 90,122,
  | 90,141,
  | 90,208,
  | 90,218,
  | 90,296,
  | 90,300,
  | 91,105,
  | 91,121,
  | 91,223,
  | 92,141,
  | 92,196,
  | 92,218,
  | 92,248,
  | 92,252,
  | 92,283,
  | 92,294,
  | 92,300,
  | 93,138,
  | 93,162,
  | 93,172,
  | 93,242,
  | 93,251,
  | 93,271,
  | 94,167,
  | 95,115,
  | 95,145,
  | 95,158,
  | 95,179,
  | 95,198,
  | 95,239,
  | 95,247,
  | 96,126,
  | 96,135,
  | 96,143,
  | 96,150,
  | 96,204,
  | 96,274,
  | 96,284,
  | 97,114,
  | 97,137,
  | 97,257,
  | 97,302,
  | 98,107,
  | 98,115,
  | 98,159,
  | 98,201,
  | 98,221,
  | 98,239,
  | 98,247,
  | 99,142,
  | 99,207,
  | 99,264,
  | 99,265,
  | 99,305,
  | 100,150,
  | 100,155,
  | 100,200,
  | 100,207,
  | 100,253,
  | 101,191,
  | 101,275,
  | 101,291,
  | 101,299,
  | 101,303,
  | 102,108,
  | 102,149,
  | 102,166,
  | 102,205,
  | 102,216,
  | 103,127,
  | 103,166,
  | 103,225,
  | 103,236,
  | 103,280,
  | 103,304,
  | 104,124,
  | 104,136,
  | 104,152,
  | 104,158,
  | 104,179,
  | 104,224,
  | 105,121,
  | 106,173,
  | 106,187,
  | 106,188,
  | 106,289,
  | 106,298,
  | 107,159,
  | 107,180,
  | 107,201,
  | 107,210,
  | 107,211,
  | 107,262,
  | 108,149,
  | 108,166,
  | 108,225,
  | 108,281,
  | 109,142,
  | 109,148,
  | 109,245,
  | 110,153,
  | 111,116,
  | 111,219,
  | 111,231,
  | 111,249,
  | 111,267,
  | 112,156,
  | 112,217,
  | 112,238,
  | 112,250,
  | 113,142,
  | 113,148,
  | 113,258,
  | 114,118,
  | 114,137,
  | 114,145,
  | 114,257,
  | 114,302,
  | 115,158,
  | 115,159,
  | 115,239,
  | 115,247,
  | 116,173,
  | 116,182,
  | 116,219,
  | 116,231,
  | 117,174,
  | 117,197,
  | 117,270,
  | 117,306,
  | 118,131,
  | 118,137,
  | 118,145,
  | 118,198,
  | 118,257,
  | 119,129,
  | 119,167,
  | 119,240,
  | 119,278,
  | 120,206,
  | 120,227,
  | 120,236,
  | 121,263,
  | 122,212,
  | 122,218,
  | 122,300,
  | 123,175,
  | 123,205,
  | 123,216,
  | 123,229,
  | 123,233,
  | 124,128,
  | 124,136,
  | 124,158,
  | 124,179,
  | 124,239,
  | 125,130,
  | 125,146,
  | 125,187,
  | 125,231,
  | 125,249,
  | 125,289,
  | 126,143,
  | 126,150,
  | 126,204,
  | 126,274,
  | 127,149,
  | 127,166,
  | 127,206,
  | 127,225,
  | 127,236,
  | 127,269,
  | 128,180,
  | 128,292,
  | 129,167,
  | 129,234,
  | 129,240,
  | 129,278,
  | 129,297,
  | 130,146,
  | 130,161,
  | 130,194,
  | 130,255,
  | 131,140,
  | 131,145,
  | 131,179,
  | 131,198,
  | 131,224,
  | 132,138,
  | 132,154,
  | 132,163,
  | 132,173,
  | 132,182,
  | 132,241,
  | 133,164,
  | 134,223,
  | 134,233,
  | 134,279,
  | 135,194,
  | 135,204,
  | 135,284,
  | 136,152,
  | 137,145,
  | 137,209,
  | 138,154,
  | 138,242,
  | 139,210,
  | 139,230,
  | 139,301,
  | 139,308,
  | 140,152,
  | 140,208,
  | 140,224,
  | 141,192,
  | 141,218,
  | 141,246,
  | 141,282,
  | 141,283,
  | 141,296,
  | 142,148,
  | 142,245,
  | 142,305,
  | 143,150,
  | 143,200,
  | 143,243,
  | 143,284,
  | 144,256,
  | 144,272,
  | 144,286,
  | 144,290,
  | 144,301,
  | 144,308,
  | 145,198,
  | 145,209,
  | 146,231,
  | 146,249,
  | 146,255,
  | 147,164,
  | 147,165,
  | 147,169,
  | 147,285,
  | 149,166,
  | 149,205,
  | 149,216,
  | 149,269,
  | 150,200,
  | 150,243,
  | 151,168,
  | 151,235,
  | 151,237,
  | 151,272,
  | 152,179,
  | 152,224,
  | 153,222,
  | 153,245,
  | 153,263,
  | 154,182,
  | 154,242,
  | 154,291,
  | 155,171,
  | 155,207,
  | 155,228,
  | 155,253,
  | 155,254,
  | 155,265,
  | 155,309,
  | 156,169,
  | 156,238,
  | 156,250,
  | 156,285,
  | 157,160,
  | 157,185,
  | 157,196,
  | 157,244,
  | 157,248,
  | 157,252,
  | 157,270,
  | 157,306,
  | 158,179,
  | 158,198,
  | 158,239,
  | 159,180,
  | 159,201,
  | 159,211,
  | 159,239,
  | 160,232,
  | 160,244,
  | 160,259,
  | 160,270,
  | 160,288,
  | 161,187,
  | 161,204,
  | 161,266,
  | 161,274,
  | 162,172,
  | 162,186,
  | 162,199,
  | 162,242,
  | 162,251,
  | 162,271,
  | 163,241,
  | 163,297,
  | 164,165,
  | 164,174,
  | 165,169,
  | 165,174,
  | 165,285,
  | 166,225,
  | 166,269,
  | 166,281,
  | 168,235,
  | 168,237,
  | 168,287,
  | 169,174,
  | 169,238,
  | 169,273,
  | 169,285,
  | 170,181,
  | 170,303,
  | 170,307,
  | 171,207,
  | 171,228,
  | 171,261,
  | 171,264,
  | 171,265,
  | 171,309,
  | 172,191,
  | 172,199,
  | 172,242,
  | 172,291,
  | 173,188,
  | 173,241,
  | 173,289,
  | 174,306,
  | 175,202,
  | 175,228,
  | 175,229,
  | 175,279,
  | 175,309,
  | 176,203,
  | 176,267,
  | 176,299,
  | 177,197,
  | 177,214,
  | 178,277,
  | 179,198,
  | 179,224,
  | 180,211,
  | 180,239,
  | 180,292,
  | 181,230,
  | 181,260,
  | 181,262,
  | 181,307,
  | 182,219,
  | 182,291,
  | 183,244,
  | 183,246,
  | 183,252,
  | 183,283,
  | 183,288,
  | 184,192,
  | 184,208,
  | 184,296,
  | 185,189,
  | 185,196,
  | 185,248,
  | 185,270,
  | 185,273,
  | 185,306,
  | 186,199,
  | 186,256,
  | 186,271,
  | 186,286,
  | 187,266,
  | 187,289,
  | 187,298,
  | 188,241,
  | 188,277,
  | 189,193,
  | 189,238,
  | 189,248,
  | 189,250,
  | 189,273,
  | 189,294,
  | 190,213,
  | 190,304,
  | 191,242,
  | 191,275,
  | 191,291,
  | 192,208,
  | 192,282,
  | 192,296,
  | 193,212,
  | 193,248,
  | 193,250,
  | 193,294,
  | 193,300,
  | 194,204,
  | 195,215,
  | 195,220,
  | 195,259,
  | 196,244,
  | 196,248,
  | 196,252,
  | 196,283,
  | 196,294,
  | 197,214,
  | 197,215,
  | 197,259,
  | 198,224,
  | 199,256,
  | 199,271,
  | 200,207,
  | 200,243,
  | 201,210,
  | 201,221,
  | 201,301,
  | 202,279,
  | 202,309,
  | 203,249,
  | 203,267,
  | 204,274,
  | 204,284,
  | 205,216,
  | 205,229,
  | 205,269,
  | 206,253,
  | 206,254,
  | 206,269,
  | 207,253,
  | 207,265,
  | 208,296,
  | 209,247,
  | 209,287,
  | 210,221,
  | 210,230,
  | 210,301,
  | 210,308,
  | 211,260,
  | 211,262,
  | 211,292,
  | 212,294,
  | 212,300,
  | 213,225,
  | 213,281,
  | 213,304,
  | 214,215,
  | 215,220,
  | 215,259,
  | 217,226,
  | 217,250,
  | 218,283,
  | 218,294,
  | 218,296,
  | 218,300,
  | 219,275,
  | 219,291,
  | 221,235,
  | 221,237,
  | 221,301,
  | 222,245,
  | 222,263,
  | 222,264,
  | 222,276,
  | 222,305,
  | 223,279,
  | 225,280,
  | 225,281,
  | 225,304,
  | 226,268,
  | 227,236,
  | 227,266,
  | 228,229,
  | 228,253,
  | 228,254,
  | 228,309,
  | 229,254,
  | 229,309,
  | 230,262,
  | 231,249,
  | 231,267,
  | 231,289,
  | 232,244,
  | 232,259,
  | 232,288,
  | 233,279,
  | 234,240,
  | 234,297,
  | 235,237,
  | 235,247,
  | 235,287,
  | 236,280,
  | 237,272,
  | 237,301,
  | 238,250,
  | 238,273,
  | 238,285,
  | 240,278,
  | 242,291,
  | 243,258,
  | 244,252,
  | 244,270,
  | 244,288,
  | 245,305,
  | 246,252,
  | 246,282,
  | 246,283,
  | 248,273,
  | 248,294,
  | 249,255,
  | 249,267,
  | 250,273,
  | 251,271,
  | 252,283,
  | 252,288,
  | 253,254,
  | 254,269,
  | 256,286,
  | 256,290,
  | 256,308,
  | 257,293,
  | 257,302,
  | 259,270,
  | 260,262,
  | 260,307,
  | 261,264,
  | 261,265,
  | 261,276,
  | 261,309,
  | 262,307,
  | 263,276,
  | 264,265,
  | 264,276,
  | 264,305,
  | 265,305,
  | 266,274,
  | 266,298,
  | 268,293,
  | 270,306,
  | 272,290,
  | 273,306,
  | 275,291,
  | 275,299,
  | 280,295,
  | 280,304,
  | 281,304,
  | 282,283,
  | 282,296,
  | 286,290,
  | 289,298,
  | 293,302,
  | 294,300,
  | 295,304,
  | 301,308 |];

